sat
(:elim-unconstrained      2
 :max-memory              58.17
 :memory                  20.42
 :num-allocs              468466336
 :rlimit-count            24857715
 :sat-backjumps           73751
 :sat-backtracks          2
 :sat-conflicts           73753
 :sat-decisions           114115
 :sat-del-clause          104531
 :sat-elim-bool-vars-res  11332
 :sat-elim-clauses        16
 :sat-elim-literals       1317
 :sat-gc-clause           43069
 :sat-minimized-lits      1711001
 :sat-mk-clause-2ary      35643
 :sat-mk-clause-3ary      15622
 :sat-mk-clause-nary      170488
 :sat-mk-var              23697
 :sat-probing-assigned    60
 :sat-propagations-2ary   8650867
 :sat-propagations-nary   17149131
 :sat-restarts            11015
 :sat-scc-elim-binary     204
 :sat-scc-elim-vars       68
 :sat-subs-resolution     1075
 :sat-subs-resolution-dyn 111803
 :sat-subsumed            12349
 :sat-units               72
 :time                    7.90
 :total-time              7.92)
